NAME : random_13
COMMENT : 30 random nodes
TYPE : TSP
DIMENSION : 30
EDGE_WEIGHT_TYPE : EUC_2D
NODE_COORD_SECTION
1 515 624
2 494 829
3 988 439
4 447 474
5 619 855
6 858 229
7 71 455
8 317 938
9 690 194
10 231 911
11 781 446
12 239 885
13 117 984
14 548 174
15 718 760
16 984 212
17 267 700
18 167 867
19 697 494
20 604 562
21 168 549
22 221 919
23 184 9
24 923 851
25 234 714
26 382 518
27 622 328
28 857 96
29 161 857
30 516 331
EOF